c FILE /home/rafael/Documents/HappySet/MIHS/inputs/happygen/output/graph_d_regular_k3_p0.5_v50_20241127_082606.txt
c SOURCE This is a d-regular graph formed for the happy graph colouring problem.
c DESCRIPTION It was generated using the problem generator of Rhyd Lewis
c
c GRAPH STATS
c Seed                             = -1107769727
c Number of Nodes                  = 50
c Number of colours k              = 3
c Number of pre-assignments        = 25
c Degree of all vertices           = 6
c Density                          = 0.122449
c 
c The degrees of nodes 1 to 50, respectively, are as follows 
c [6, 6, 6, 6, 6, 6, 6, 6, 6, 6, 6, 6, 6, 6, 6, 6, 6, 6, 6, 6, 6, 6, 6, 6, 6, 6, 
c  6, 6, 6, 6, 6, 6, 6, 6, 6, 6, 6, 6, 6, 6, 6, 6, 6, 6, 6, 6, 6, 6, 6, 6] 
c  
p edge 50 150 3
e 1 6
e 1 16
e 1 17
e 1 22
e 1 35
e 1 47
e 2 5
e 2 12
e 2 22
e 2 36
e 2 45
e 2 47
e 3 7
e 3 8
e 3 10
e 3 20
e 3 35
e 3 36
e 4 28
e 4 30
e 4 31
e 4 34
e 4 40
e 4 41
e 5 6
e 5 35
e 5 37
e 5 43
e 5 47
e 6 33
e 6 34
e 6 49
e 6 50
e 7 19
e 7 22
e 7 25
e 7 28
e 7 46
e 8 9
e 8 13
e 8 16
e 8 20
e 8 32
e 9 11
e 9 19
e 9 21
e 9 45
e 9 49
e 10 25
e 10 32
e 10 33
e 10 42
e 10 48
e 11 12
e 11 16
e 11 32
e 11 39
e 11 43
e 12 15
e 12 18
e 12 29
e 12 38
e 13 21
e 13 24
e 13 25
e 13 32
e 13 42
e 14 20
e 14 23
e 14 30
e 14 33
e 14 35
e 14 40
e 15 24
e 15 25
e 15 28
e 15 39
e 15 40
e 16 30
e 16 42
e 16 43
e 17 18
e 17 37
e 17 38
e 17 42
e 17 48
e 18 21
e 18 23
e 18 38
e 18 50
e 19 30
e 19 35
e 19 45
e 19 46
e 20 24
e 20 31
e 20 43
e 21 35
e 21 40
e 21 44
e 22 26
e 22 37
e 22 47
e 23 25
e 23 26
e 23 45
e 23 46
e 24 28
e 24 41
e 24 50
e 25 39
e 26 31
e 26 41
e 26 44
e 26 49
e 27 29
e 27 31
e 27 36
e 27 38
e 27 42
e 27 50
e 28 36
e 28 39
e 29 32
e 29 47
e 29 48
e 29 50
e 30 44
e 30 48
e 31 37
e 31 40
e 32 34
e 33 34
e 33 40
e 33 43
e 34 44
e 34 48
e 36 46
e 36 48
e 37 44
e 37 49
e 38 45
e 38 49
e 39 46
e 39 47
e 41 42
e 41 43
e 41 45
e 44 49
e 46 50
n 2 3
n 3 1
n 6 2
n 8 1
n 18 2
n 19 2
n 20 1
n 21 2
n 23 2
n 24 1
n 25 2
n 26 2
n 27 3
n 28 1
n 30 2
n 32 1
n 37 2
n 40 2
n 42 3
n 43 1
n 44 2
n 46 2
n 47 3
n 48 2
n 49 2
